Solver command line: ['C:\\Program Files\\IBM\\ILOG\\CPLEX_Studio2211\\cplex\\bin\\x64_win64\\cplex.exe']


Welcome to IBM(R) ILOG(R) CPLEX(R) Interactive Optimizer 22.1.1.0
  with Simplex, Mixed Integer & Barrier Optimizers
5725-A06 5725-A29 5724-Y48 5724-Y49 5724-Y54 5724-Y55 5655-Y21
Copyright IBM Corp. 1988, 2022.  All Rights Reserved.

Type 'help' for a list of available commands.
Type 'help' followed by a command name for more
information on commands.

CPLEX> Logfile 'cplex.log' closed.
Logfile 'C:\Users\wangy\Documents\GitHub\re_optimization\result_site_specific\tmphmufsb67.cplex.log' open.
CPLEX> Problem 'C:\Users\wangy\Documents\GitHub\re_optimization\result_site_specific\tmpx9ky3p99.pyomo.lp' read.
Read time = 0.26 sec. (7.98 ticks)
CPLEX> Problem name         : C:\Users\wangy\Documents\GitHub\re_optimization\result_site_specific\tmpx9ky3p99.pyomo.lp
Objective sense      : Minimize
Variables            :   56997  [Nneg: 30685,  Free: 4406,  Binary: 6,
                                 Other: 21900]
Objective nonzeros   :      14
Linear constraints   :   78893  [Less: 42355,  Greater: 5,  Equal: 36533]
  Nonzeros           :  198792
  RHS nonzeros       :    3659

Variables            : Min LB: 0.000000         Max UB: 1.000000       
Objective nonzeros   : Min   : 1.000000         Max   : 1.000000       
Linear constraints   :
  Nonzeros           : Min   : 0.0001880249     Max   : 100000.0       
  RHS nonzeros       : Min   : 0.08300000       Max   : 100000.0       
CPLEX> Version identifier: 22.1.1.0 | 2022-11-27 | 9160aff4d
Tried aggregator 3 times.
MIP Presolve eliminated 45301 rows and 24858 columns.
Aggregator did 11956 substitutions.
Reduced MIP has 21636 rows, 20183 columns, and 65900 nonzeros.
Reduced MIP has 2 binaries, 0 generals, 0 SOSs, and 0 indicators.
Presolve time = 0.19 sec. (211.19 ticks)
Found incumbent of value 297465.630463 after 0.28 sec. (331.90 ticks)
Probing time = 0.00 sec. (1.12 ticks)
Tried aggregator 1 time.
Detecting symmetries...
Reduced MIP has 21636 rows, 20183 columns, and 65900 nonzeros.
Reduced MIP has 2 binaries, 0 generals, 0 SOSs, and 0 indicators.
Presolve time = 0.03 sec. (39.43 ticks)
Probing time = 0.00 sec. (1.07 ticks)
MIP emphasis: balance optimality and feasibility.
MIP search method: dynamic search.
Parallel mode: deterministic, using up to 16 threads.
Root relaxation solution time = 1.11 sec. (890.31 ticks)

        Nodes                                         Cuts/
   Node  Left     Objective  IInf  Best Integer    Best Bound    ItCnt     Gap

*     0+    0                       297465.6305   -27115.2325           109.12%
      0     0     9317.2814     1   297465.6305     9317.2814       75   96.87%
*     0+    0                        10921.9587     9317.2814            14.69%
*     0+    0                        10125.8182     9317.2814             7.98%
      0     0        cutoff          10125.8182                   1184    0.00%
Elapsed time = 1.81 sec. (1989.33 ticks, tree = 0.01 MB, solutions = 3)

Root node processing (before b&c):
  Real time             =    1.83 sec. (1992.10 ticks)
Parallel b&c, 16 threads:
  Real time             =    0.00 sec. (0.00 ticks)
  Sync time (average)   =    0.00 sec.
  Wait time (average)   =    0.00 sec.
                          ------------
Total (root+branch&cut) =    1.83 sec. (1992.10 ticks)

Solution pool: 3 solutions saved.

MIP - Integer optimal solution:  Objective =  1.0125818246e+04
Solution time =    1.83 sec.  Iterations = 1184  Nodes = 0
Deterministic time = 1992.26 ticks  (1089.26 ticks/sec)

CPLEX> Incumbent solution written to file 'C:\Users\wangy\Documents\GitHub\re_optimization\result_site_specific\tmpi9wnkczp.cplex.sol'.
CPLEX> 
